NAME : XML100_1326_15
DIMENSION : 101
NB_CLUSTERS : 4
CLUSTERING_ALG : KMeans
CLUSTERING_PARAMS : k(3)
CLUSTERS
1 0
2 2 3 23 25 27 36 40 42 51 53 58 61 67 68 69 74 76 83 88
3 1 4 6 7 11 12 13 14 16 19 20 21 22 26 29 30 31 35 39 41 43 44 45 46 48 49 55 56 57 60 62 63 66 70 78 80 84 86 87 89 91 92 93 94 97 98 100
4 5 8 9 10 15 17 18 24 28 32 33 34 37 38 47 50 52 54 59 64 65 71 72 73 75 77 79 81 82 85 90 95 96 99
EOF